H    C 
   1.00000000000000     
  15.0000000000000000   0.0000000000000010   0.0000000000000010
   0.0000000000000000  15.0000000000000000   0.0000000000000020
   0.0000000000000000   0.0000000000000000  15.0000000000000000
H    C 
18  14  
Direct
  0.3420308038214686  0.3030285405205477  0.4287383310780305  
  0.2478944389964972  0.3743480697147762  0.4167274559363019  
  0.2483243548263252  0.2909492069286550  0.5006095519058014  
  0.2009683087083015  0.4272219445897374  0.5917133670288971  
  0.3448888683699323  0.5723331857662937  0.6138065423498601  
  0.2292245970595974  0.5721905699530710  0.6589235034183093  
  0.5439776222098545  0.4140708570136798  0.2860172448955833  
  0.6322417726099749  0.4156663363726905  0.3651574367905833  
  0.6298467041658934  0.4954067886572768  0.2775483857066081  
  0.4755870616931694  0.2604369828312094  0.6158307035739548  
  0.4304703416048522  0.3278687575090311  0.7015771569010099  
  0.5359493622907880  0.3552847322146646  0.6536570099961603  
  0.6275394872610264  0.6918981560315501  0.4735707913586324  
  0.6347082190378597  0.6061030493846652  0.5549704584496210  
  0.5443340459137216  0.6826563884236964  0.5576064177474168  
  0.3547822137233589  0.6016585151949381  0.2940401557251721  
  0.4367508161720517  0.6872967615459535  0.2940476574710074  
  0.3571044198601694  0.6809878051248845  0.3818412959901110  
  0.2905710242414565  0.3398749087417381  0.4655963133690921  
  0.4665172609587249  0.5121468464852781  0.4566573942419408  
  0.2808374549682242  0.5382868993844958  0.6205920108044111  
  0.2667613793854746  0.4581877421357206  0.5835982927386428  
  0.3329545272570655  0.4055201948341156  0.5306937198022630  
  0.4233268713095926  0.4471905136510398  0.5097975869882019  
  0.5879232560747476  0.4581482277085671  0.3248990601781679  
  0.4233433512095523  0.3853820963619794  0.5716651646372586  
  0.5354609066226839  0.5186693466858987  0.3821720744578416  
  0.4687607543885478  0.3299042654030658  0.6389911931301102  
  0.4602409347395737  0.5828912221971282  0.3882505919259243  
  0.5354025651852105  0.5847339080056895  0.4546843890755258  
  0.5880706786847312  0.6441618294913147  0.5129764642111508  
  0.3993066011418780  0.6410687908513439  0.3370306176233671  
