H    C                                  
   1.00000000000000     
    15.0000000000000000    0.0000000000000010    0.0000000000000010
     0.0000000000000000   15.0000000000000000    0.0000000000000020
     0.0000000000000000    0.0000000000000000   15.0000000000000000
   H    C 
    18    14
Direct
  0.3337449450532876  0.2989824077955220  0.4166307286184101
  0.2451452725785398  0.3779217346472933  0.4108339859542658
  0.2426675706156688  0.2933380911625871  0.4934621719196814
  0.1970037989823314  0.4741453993266633  0.6359663479362082
  0.3139923692704800  0.6231906948422499  0.5809801385998691
  0.2697655744115616  0.5710377887490380  0.6777047113902365
  0.5482322998340629  0.4131276793707355  0.2861884840749481
  0.6337376675383372  0.4129580832431108  0.3686393212983999
  0.6362872257461977  0.4924436575766071  0.2806969087336481
  0.4928334380636072  0.2689585423494217  0.6102502196216358
  0.4181035002180966  0.3171397283732173  0.6882856840938228
  0.5228231021130976  0.3693531782804834  0.6665570208286188
  0.6346734738726272  0.6883199892737244  0.4723859331238247
  0.6362447758377857  0.6034253546589786  0.5550579961880062
  0.5489125586574107  0.6838920254440342  0.5547731454716899
  0.3635146553146120  0.6024184137699992  0.2861587119171844
  0.4470327791623040  0.6866227786086441  0.2867525187205348
  0.3644151741951336  0.6837864442411085  0.3725828190768761
  0.2871409095304220  0.3388673308037164  0.4568258356551894
  0.4669638574094949  0.5152888038985325  0.4538107989032215
  0.2633611638064429  0.5171319693197970  0.6303087132519196
  0.2844622513720326  0.4392323256110464  0.5950310810649604
  0.3351524768778891  0.3998451167311027  0.5213926781674880
  0.4225805380778911  0.4497005769892249  0.5037238152299712
  0.5918365627096102  0.4562168542372781  0.3265932934405619
  0.4247013057437811  0.3850321007810796  0.5642583308246238
  0.5392749071861045  0.5189189010876539  0.3811480772006870
  0.4671504367480018  0.3328322343170112  0.6358901884630240
  0.4652442463830451  0.5843019092611489  0.3839642647979534
  0.5384996039644101  0.5850859727374452  0.4530590723896806
  0.5921649937482263  0.6431594187283470  0.5117816873877433
  0.4071570850826585  0.6423698818588510  0.3296818057381457
 
  0.00000000E+00  0.00000000E+00  0.00000000E+00
  0.00000000E+00  0.00000000E+00  0.00000000E+00
  0.00000000E+00  0.00000000E+00  0.00000000E+00
  0.00000000E+00  0.00000000E+00  0.00000000E+00
  0.00000000E+00  0.00000000E+00  0.00000000E+00
  0.00000000E+00  0.00000000E+00  0.00000000E+00
  0.00000000E+00  0.00000000E+00  0.00000000E+00
  0.00000000E+00  0.00000000E+00  0.00000000E+00
  0.00000000E+00  0.00000000E+00  0.00000000E+00
  0.00000000E+00  0.00000000E+00  0.00000000E+00
  0.00000000E+00  0.00000000E+00  0.00000000E+00
  0.00000000E+00  0.00000000E+00  0.00000000E+00
  0.00000000E+00  0.00000000E+00  0.00000000E+00
  0.00000000E+00  0.00000000E+00  0.00000000E+00
  0.00000000E+00  0.00000000E+00  0.00000000E+00
  0.00000000E+00  0.00000000E+00  0.00000000E+00
  0.00000000E+00  0.00000000E+00  0.00000000E+00
  0.00000000E+00  0.00000000E+00  0.00000000E+00
  0.00000000E+00  0.00000000E+00  0.00000000E+00
  0.00000000E+00  0.00000000E+00  0.00000000E+00
  0.00000000E+00  0.00000000E+00  0.00000000E+00
  0.00000000E+00  0.00000000E+00  0.00000000E+00
  0.00000000E+00  0.00000000E+00  0.00000000E+00
  0.00000000E+00  0.00000000E+00  0.00000000E+00
  0.00000000E+00  0.00000000E+00  0.00000000E+00
  0.00000000E+00  0.00000000E+00  0.00000000E+00
  0.00000000E+00  0.00000000E+00  0.00000000E+00
  0.00000000E+00  0.00000000E+00  0.00000000E+00
  0.00000000E+00  0.00000000E+00  0.00000000E+00
  0.00000000E+00  0.00000000E+00  0.00000000E+00
  0.00000000E+00  0.00000000E+00  0.00000000E+00
  0.00000000E+00  0.00000000E+00  0.00000000E+00
