H    C 
   1.00000000000000     
  15.0000000000000000   0.0000000000000010   0.0000000000000010
   0.0000000000000000  15.0000000000000000   0.0000000000000020
   0.0000000000000000   0.0000000000000000  15.0000000000000000
H    C 
18  14  
Direct
  0.3194631525432299  0.2963555745726875  0.4068023942910848  
  0.2377833622120508  0.3820748469871045  0.4036129007034064  
  0.2335123540060699  0.2992919523774840  0.4882607760690107  
  0.2340618083270654  0.4928256735300054  0.6719368136192810  
  0.2399552760208941  0.5740391032654164  0.5858046743572892  
  0.3214576722364928  0.5728235178619220  0.6717376418648077  
  0.5534691230885146  0.4114191860544053  0.2857833610321145  
  0.6351131347582848  0.4097877780539967  0.3715830233805066  
  0.6407112744262838  0.4915775957736025  0.2859776432868946  
  0.5011602732252671  0.2944240197053375  0.5996420477870807  
  0.4155919745998110  0.2985776348103471  0.6815054626963752  
  0.5014357161499641  0.3802023635283058  0.6813043284086853  
  0.6415232864552280  0.6837889869231484  0.4707457933467828  
  0.6371069156921978  0.6006076538283777  0.5549967793151418  
  0.5555605437274683  0.6864625809136735  0.5521958976297154  
  0.3730925834816681  0.6031808352852303  0.2776247348248135  
  0.4583846789721762  0.6853863959784989  0.2777541905841724  
  0.3728913323371413  0.6885245506913397  0.3597279695876043  
  0.2789680485253403  0.3411588782511168  0.4485711826148042  
  0.4664593605481382  0.5174855302334679  0.4520699140790261  
  0.2802386977656188  0.5300241255487786  0.6286020102535697  
  0.3360890396095953  0.4691986217647143  0.5749004565632386  
  0.3357066854211226  0.3973589845480255  0.5062687361498915  
  0.4085747506890890  0.4656313865659744  0.5063408381600720  
  0.5946747350051546  0.4540043967667261  0.3291443222307235  
  0.4040103215303528  0.3967747118903483  0.5784670852786952  
  0.5387764049122922  0.5143400773987937  0.3833494997636704  
  0.4580257353567689  0.3398157634383652  0.6379945340554697  
  0.4707411324927478  0.5866976159044540  0.3802515266141120  
  0.5391854841110847  0.5859230883629647  0.4522795733619238  
  0.5959958269376076  0.6417981609682183  0.5102215492303237  
  0.4162907964780969  0.6436272157358933  0.3210925991860607  
