H    C                                  
   1.00000000000000     
    15.0000000000000000    0.0000000000000010    0.0000000000000010
     0.0000000000000000   15.0000000000000000    0.0000000000000020
     0.0000000000000000    0.0000000000000000   15.0000000000000000
   H    C 
    18    14
Direct
  0.3341411809381134  0.2991832296754305  0.4166134683990451
  0.2455953995986284  0.3783948872900860  0.4110435855587436
  0.2429758184358921  0.2934506222719279  0.4932240582924876
  0.1922045947949787  0.4744696627264930  0.6435531971589806
  0.3141926559572298  0.6282474900427175  0.5845415626227253
  0.2723961267994006  0.5756634317019349  0.6674696778428781
  0.5484565703680334  0.4130074030886846  0.2860152575142685
  0.6338913824323357  0.4128578066784966  0.3684522830447070
  0.6363731143777386  0.4925311666068455  0.2806486814646660
  0.4937970492192421  0.2678080205305475  0.6115656346234961
  0.4180635232495062  0.3175690366502803  0.6876059591473783
  0.5230927724796997  0.3693768291971623  0.6664056132135763
  0.6348906284727751  0.6884999738414566  0.4725994449597730
  0.6361777177611959  0.6032287827872665  0.5549474964013346
  0.5489644306915451  0.6838488513937375  0.5547563563319207
  0.3635895420285632  0.6022933017552579  0.2861374478371125
  0.4469421679481403  0.6866763586571879  0.2867013842034971
  0.3644047579365704  0.6838329035202857  0.3724590243435116
  0.2875403526978493  0.3389721765559098  0.4567436999248311
  0.4675446172052597  0.5150773851641758  0.4536554991919739
  0.2578095886615066  0.5094427276389942  0.6350468369230449
  0.2833052824757207  0.4406490640052168  0.5908106771314846
  0.3360519484789365  0.3988793498066299  0.5221168903430403
  0.4235930650866488  0.4496508371349947  0.5042407509842405
  0.5919686036566311  0.4561590118047071  0.3264605137118858
  0.4263227057264461  0.3832233013548542  0.5626100179935229
  0.5392401348835287  0.5185868933520719  0.3811788585497426
  0.4679531976908968  0.3321884184694850  0.6355754085610646
  0.4655013527210959  0.5845010226616706  0.3839520470569930
  0.5386382903516339  0.5854688685642216  0.4526689455861165
  0.5922836675641803  0.6432237397193605  0.5117334358419620
  0.4071545834253440  0.6423382625776317  0.3296310502948490
 
  0.00000000E+00  0.00000000E+00  0.00000000E+00
  0.00000000E+00  0.00000000E+00  0.00000000E+00
  0.00000000E+00  0.00000000E+00  0.00000000E+00
  0.00000000E+00  0.00000000E+00  0.00000000E+00
  0.00000000E+00  0.00000000E+00  0.00000000E+00
  0.00000000E+00  0.00000000E+00  0.00000000E+00
  0.00000000E+00  0.00000000E+00  0.00000000E+00
  0.00000000E+00  0.00000000E+00  0.00000000E+00
  0.00000000E+00  0.00000000E+00  0.00000000E+00
  0.00000000E+00  0.00000000E+00  0.00000000E+00
  0.00000000E+00  0.00000000E+00  0.00000000E+00
  0.00000000E+00  0.00000000E+00  0.00000000E+00
  0.00000000E+00  0.00000000E+00  0.00000000E+00
  0.00000000E+00  0.00000000E+00  0.00000000E+00
  0.00000000E+00  0.00000000E+00  0.00000000E+00
  0.00000000E+00  0.00000000E+00  0.00000000E+00
  0.00000000E+00  0.00000000E+00  0.00000000E+00
  0.00000000E+00  0.00000000E+00  0.00000000E+00
  0.00000000E+00  0.00000000E+00  0.00000000E+00
  0.00000000E+00  0.00000000E+00  0.00000000E+00
  0.00000000E+00  0.00000000E+00  0.00000000E+00
  0.00000000E+00  0.00000000E+00  0.00000000E+00
  0.00000000E+00  0.00000000E+00  0.00000000E+00
  0.00000000E+00  0.00000000E+00  0.00000000E+00
  0.00000000E+00  0.00000000E+00  0.00000000E+00
  0.00000000E+00  0.00000000E+00  0.00000000E+00
  0.00000000E+00  0.00000000E+00  0.00000000E+00
  0.00000000E+00  0.00000000E+00  0.00000000E+00
  0.00000000E+00  0.00000000E+00  0.00000000E+00
  0.00000000E+00  0.00000000E+00  0.00000000E+00
  0.00000000E+00  0.00000000E+00  0.00000000E+00
  0.00000000E+00  0.00000000E+00  0.00000000E+00
