H    C                                  
   1.00000000000000     
    15.0000000000000000    0.0000000000000010    0.0000000000000010
     0.0000000000000000   15.0000000000000000    0.0000000000000020
     0.0000000000000000    0.0000000000000000   15.0000000000000000
   H    C 
    18    14
Direct
  0.3339382434917532  0.3069411934717270  0.4248140338501869
  0.2426256930671020  0.3805406984252812  0.4121998763283738
  0.2406151482399254  0.2974272596948305  0.4962239484255885
  0.2227796948414850  0.4223551904907487  0.6284476702006330
  0.3254428866369882  0.5950663090069472  0.5832456839342450
  0.2528274980969976  0.5716517951067794  0.6797909653535914
  0.5484946301883509  0.4127478474225166  0.2857613542893649
  0.6335441762236407  0.4124286419701288  0.3685734579098183
  0.6367168356404407  0.4920287335783563  0.2806979155042755
  0.4927528200335508  0.2717421799404340  0.6082569015000416
  0.4171602828328482  0.3149091177626741  0.6882367448277897
  0.5197733098072396  0.3707351021397757  0.6670426535330113
  0.6349045266650326  0.6875550289052297  0.4719646215135860
  0.6358988167237419  0.6029135358861590  0.5548865647242461
  0.5494714554970210  0.6841258356705150  0.5543925219376689
  0.3643233651902045  0.6024933025957866  0.2848681229590806
  0.4482474170552515  0.6863442006178697  0.2852972130585749
  0.3650798418925980  0.6847985903631851  0.3701373189454077
  0.2841084177365157  0.3460661319451642  0.4621254370750171
  0.4668544778520478  0.5141659053911044  0.4527400869016660
  0.2836051632662731  0.5468752945828990  0.6185483488186615
  0.2725681638540650  0.4619803385037236  0.5920183879509120
  0.3294656787217688  0.4111484655466018  0.5267782887181166
  0.4208170157672685  0.4497667259945748  0.5041122389846139
  0.5919531393662114  0.4558509529056741  0.3263404929718491
  0.4204510033892183  0.3874587047328834  0.5655706512132250
  0.5388342045886539  0.5179948864107233  0.3810652518254085
  0.4645595116576258  0.3339355923093318  0.6355580544064448
  0.4653764378891234  0.5842984702232776  0.3834633069610686
  0.5380760921062281  0.5847618796297294  0.4526836291956599
  0.5920722594982000  0.6426315749726708  0.5113215742783339
  0.4080578458745311  0.6424136227785450  0.3283215875695448
 
  0.00000000E+00  0.00000000E+00  0.00000000E+00
  0.00000000E+00  0.00000000E+00  0.00000000E+00
  0.00000000E+00  0.00000000E+00  0.00000000E+00
  0.00000000E+00  0.00000000E+00  0.00000000E+00
  0.00000000E+00  0.00000000E+00  0.00000000E+00
  0.00000000E+00  0.00000000E+00  0.00000000E+00
  0.00000000E+00  0.00000000E+00  0.00000000E+00
  0.00000000E+00  0.00000000E+00  0.00000000E+00
  0.00000000E+00  0.00000000E+00  0.00000000E+00
  0.00000000E+00  0.00000000E+00  0.00000000E+00
  0.00000000E+00  0.00000000E+00  0.00000000E+00
  0.00000000E+00  0.00000000E+00  0.00000000E+00
  0.00000000E+00  0.00000000E+00  0.00000000E+00
  0.00000000E+00  0.00000000E+00  0.00000000E+00
  0.00000000E+00  0.00000000E+00  0.00000000E+00
  0.00000000E+00  0.00000000E+00  0.00000000E+00
  0.00000000E+00  0.00000000E+00  0.00000000E+00
  0.00000000E+00  0.00000000E+00  0.00000000E+00
  0.00000000E+00  0.00000000E+00  0.00000000E+00
  0.00000000E+00  0.00000000E+00  0.00000000E+00
  0.00000000E+00  0.00000000E+00  0.00000000E+00
  0.00000000E+00  0.00000000E+00  0.00000000E+00
  0.00000000E+00  0.00000000E+00  0.00000000E+00
  0.00000000E+00  0.00000000E+00  0.00000000E+00
  0.00000000E+00  0.00000000E+00  0.00000000E+00
  0.00000000E+00  0.00000000E+00  0.00000000E+00
  0.00000000E+00  0.00000000E+00  0.00000000E+00
  0.00000000E+00  0.00000000E+00  0.00000000E+00
  0.00000000E+00  0.00000000E+00  0.00000000E+00
  0.00000000E+00  0.00000000E+00  0.00000000E+00
  0.00000000E+00  0.00000000E+00  0.00000000E+00
  0.00000000E+00  0.00000000E+00  0.00000000E+00
