H    C                                  
   1.00000000000000     
    15.0000000000000000    0.0000000000000010    0.0000000000000010
     0.0000000000000000   15.0000000000000000    0.0000000000000020
     0.0000000000000000    0.0000000000000000   15.0000000000000000
   H    C 
    18    14
Direct
  0.3246760031061063  0.2939773755841801  0.4103648767513262
  0.2416794735638118  0.3786163554783270  0.4079159087377592
  0.2386729873126939  0.2949771009741095  0.4920104892854176
  0.2138317398185138  0.4896870594395616  0.6429860613348908
  0.2550460393280693  0.5801633648685012  0.5785809234888758
  0.3018995617626056  0.5571860691707736  0.6848946012150663
  0.5494494281368957  0.4125058333727296  0.2855515942875062
  0.6339827774045569  0.4121588636729912  0.3686445919686432
  0.6356147948946622  0.4939261172370009  0.2827301471784124
  0.4914434568425297  0.2804135174721050  0.6025338947262102
  0.4206696105849126  0.3055413132132435  0.6942278093791534
  0.5163852139769207  0.3723816229390416  0.6730734146676904
  0.6365347276744335  0.6877093855581971  0.4714424249594352
  0.6363581743104906  0.6028497384008986  0.5544313685457425
  0.5514208385407725  0.6854926017023030  0.5540709122316598
  0.3657273457393104  0.6024746380640270  0.2837074607491584
  0.4495289786991993  0.6864009915456681  0.2834718864397565
  0.3663068344800682  0.6858326106895667  0.3679054809882379
  0.2835093121695349  0.3378320288753667  0.4525503661682401
  0.4668013949137873  0.5161678184894770  0.4548812303065516
  0.2748611814605115  0.5260088977017706  0.6241279070171333
  0.3387309113456022  0.4660145337962562  0.5787811967009526
  0.3398849449572267  0.3941719518576041  0.5101939144802482
  0.4115787887886406  0.4628726604659849  0.5104690732344738
  0.5915368408349875  0.4557752730095204  0.3274793312878536
  0.4073054648570459  0.3941166619375460  0.5831748156313949
  0.5366653532752487  0.5152350843863631  0.3836272183919661
  0.4615350299374740  0.3354866723558715  0.6409961952840134
  0.4667743631555079  0.5857874974826138  0.3833671208156988
  0.5375694722337473  0.5862495737419484  0.4530282129883009
  0.5932183137029127  0.6432878233053064  0.5108096124059907
  0.4094553537035891  0.6426982056118106  0.3269512100308610
 
  0.00000000E+00  0.00000000E+00  0.00000000E+00
  0.00000000E+00  0.00000000E+00  0.00000000E+00
  0.00000000E+00  0.00000000E+00  0.00000000E+00
  0.00000000E+00  0.00000000E+00  0.00000000E+00
  0.00000000E+00  0.00000000E+00  0.00000000E+00
  0.00000000E+00  0.00000000E+00  0.00000000E+00
  0.00000000E+00  0.00000000E+00  0.00000000E+00
  0.00000000E+00  0.00000000E+00  0.00000000E+00
  0.00000000E+00  0.00000000E+00  0.00000000E+00
  0.00000000E+00  0.00000000E+00  0.00000000E+00
  0.00000000E+00  0.00000000E+00  0.00000000E+00
  0.00000000E+00  0.00000000E+00  0.00000000E+00
  0.00000000E+00  0.00000000E+00  0.00000000E+00
  0.00000000E+00  0.00000000E+00  0.00000000E+00
  0.00000000E+00  0.00000000E+00  0.00000000E+00
  0.00000000E+00  0.00000000E+00  0.00000000E+00
  0.00000000E+00  0.00000000E+00  0.00000000E+00
  0.00000000E+00  0.00000000E+00  0.00000000E+00
  0.00000000E+00  0.00000000E+00  0.00000000E+00
  0.00000000E+00  0.00000000E+00  0.00000000E+00
  0.00000000E+00  0.00000000E+00  0.00000000E+00
  0.00000000E+00  0.00000000E+00  0.00000000E+00
  0.00000000E+00  0.00000000E+00  0.00000000E+00
  0.00000000E+00  0.00000000E+00  0.00000000E+00
  0.00000000E+00  0.00000000E+00  0.00000000E+00
  0.00000000E+00  0.00000000E+00  0.00000000E+00
  0.00000000E+00  0.00000000E+00  0.00000000E+00
  0.00000000E+00  0.00000000E+00  0.00000000E+00
  0.00000000E+00  0.00000000E+00  0.00000000E+00
  0.00000000E+00  0.00000000E+00  0.00000000E+00
  0.00000000E+00  0.00000000E+00  0.00000000E+00
  0.00000000E+00  0.00000000E+00  0.00000000E+00
