H    C                                  
   1.00000000000000     
    15.0000000000000000    0.0000000000000010    0.0000000000000010
     0.0000000000000000   15.0000000000000000    0.0000000000000020
     0.0000000000000000    0.0000000000000000   15.0000000000000000
   H    C 
    18    14
Direct
  0.3347673343856724  0.2998168683473083  0.4181650568959206
  0.2455421980110393  0.3776996807307954  0.4111581429436366
  0.2424562111429172  0.2920629218370605  0.4929065048472829
  0.2017441040445418  0.4482218851870465  0.6294468653009059
  0.3249309307289171  0.6340860386580943  0.5902001682280378
  0.2717477604808362  0.5853831426624369  0.6595800552230566
  0.5482140653585226  0.4132703527712666  0.2861197509651160
  0.6336654652882436  0.4132307131256067  0.3685739190747579
  0.6357070131711166  0.4931812160031114  0.2810926367818560
  0.4923436812616166  0.2682540843194138  0.6101269613359345
  0.4186851282541221  0.3172779072964810  0.6887930144047978
  0.5232911990784869  0.3689957231672371  0.6653510966194737
  0.6338586006412543  0.6882020693473573  0.4723206392671307
  0.6358578650117310  0.6034859918258146  0.5551149298098123
  0.5484820250911995  0.6839120735906346  0.5551332304362057
  0.3631463085933094  0.6025792258016314  0.2864713338801468
  0.4467470210998239  0.6867154173086244  0.2873048592225255
  0.3640653587065167  0.6839415063656437  0.3729928352781342
  0.2869136088642789  0.3387842624241730  0.4578222985993162
  0.4659735757938741  0.5147961664492368  0.4542723879422189
  0.2618474247214533  0.5133700237553505  0.6405080711169218
  0.2763895955268419  0.4451121703224096  0.5916691279624317
  0.3337920406841854  0.3995234333493738  0.5239905931416668
  0.4216771670152396  0.4490838419386290  0.5049517045846194
  0.5914256598778669  0.4564876426078994  0.3268324482260793
  0.4240116691442436  0.3841586431127998  0.5642958422117831
  0.5381991881649004  0.5182861593910232  0.3819044672744387
  0.4671535560553393  0.3323494190424451  0.6356432727115894
  0.4646509711204526  0.5843117133297240  0.3845426438358283
  0.5374595243181244  0.5849719113786984  0.4536050009590441
  0.5915085709952773  0.6430985056245001  0.5119953245265738
  0.4067510284123312  0.6424331386678327  0.3301172241025405
 
  0.00000000E+00  0.00000000E+00  0.00000000E+00
  0.00000000E+00  0.00000000E+00  0.00000000E+00
  0.00000000E+00  0.00000000E+00  0.00000000E+00
  0.00000000E+00  0.00000000E+00  0.00000000E+00
  0.00000000E+00  0.00000000E+00  0.00000000E+00
  0.00000000E+00  0.00000000E+00  0.00000000E+00
  0.00000000E+00  0.00000000E+00  0.00000000E+00
  0.00000000E+00  0.00000000E+00  0.00000000E+00
  0.00000000E+00  0.00000000E+00  0.00000000E+00
  0.00000000E+00  0.00000000E+00  0.00000000E+00
  0.00000000E+00  0.00000000E+00  0.00000000E+00
  0.00000000E+00  0.00000000E+00  0.00000000E+00
  0.00000000E+00  0.00000000E+00  0.00000000E+00
  0.00000000E+00  0.00000000E+00  0.00000000E+00
  0.00000000E+00  0.00000000E+00  0.00000000E+00
  0.00000000E+00  0.00000000E+00  0.00000000E+00
  0.00000000E+00  0.00000000E+00  0.00000000E+00
  0.00000000E+00  0.00000000E+00  0.00000000E+00
  0.00000000E+00  0.00000000E+00  0.00000000E+00
  0.00000000E+00  0.00000000E+00  0.00000000E+00
  0.00000000E+00  0.00000000E+00  0.00000000E+00
  0.00000000E+00  0.00000000E+00  0.00000000E+00
  0.00000000E+00  0.00000000E+00  0.00000000E+00
  0.00000000E+00  0.00000000E+00  0.00000000E+00
  0.00000000E+00  0.00000000E+00  0.00000000E+00
  0.00000000E+00  0.00000000E+00  0.00000000E+00
  0.00000000E+00  0.00000000E+00  0.00000000E+00
  0.00000000E+00  0.00000000E+00  0.00000000E+00
  0.00000000E+00  0.00000000E+00  0.00000000E+00
  0.00000000E+00  0.00000000E+00  0.00000000E+00
  0.00000000E+00  0.00000000E+00  0.00000000E+00
  0.00000000E+00  0.00000000E+00  0.00000000E+00
