H    C                                  
   1.00000000000000     
    15.0000000000000000    0.0000000000000010    0.0000000000000010
     0.0000000000000000   15.0000000000000000    0.0000000000000020
     0.0000000000000000    0.0000000000000000   15.0000000000000000
   H    C 
    18    14
Direct
  0.3266003410582926  0.2927249946115760  0.4114431688490219
  0.2424383265785496  0.3761797575419614  0.4089367324010233
  0.2399883672381610  0.2920739319268789  0.4926316108879793
  0.2076409194491490  0.4944256422011076  0.6273800562837052
  0.2673800396711180  0.5866034639940626  0.5798217473223186
  0.2920272100354784  0.5498913165329754  0.6888968447327402
  0.5482941897088858  0.4126755911206661  0.2860401828119299
  0.6335072874683628  0.4127675255269470  0.3684282846975623
  0.6339322821956379  0.4945745052030793  0.2826328685623793
  0.4886908602286232  0.2762345529931040  0.6039583604151082
  0.4230632889983820  0.3082413342210697  0.6973031820642336
  0.5206976003712551  0.3696496742792957  0.6694048541197172
  0.6348014341096948  0.6881764736279931  0.4716861459863512
  0.6362190080384413  0.6033798478997636  0.5546753908793073
  0.5504486140407325  0.6851526543159545  0.5551005960526373
  0.3637024235456806  0.6022577539151927  0.2858826736089761
  0.4471190379632701  0.6865725440208040  0.2857157272670440
  0.3644753266588528  0.6849383330436984  0.3707938653637622
  0.2845036033121075  0.3356939898785198  0.4536328942425596
  0.4659677570380078  0.5155679041784207  0.4560782931305213
  0.2736431004863071  0.5264494182399401  0.6217815434742511
  0.3386093890301462  0.4643007226917899  0.5801907676207417
  0.3401060307995079  0.3925497463774738  0.5114833601511677
  0.4113302494579718  0.4614033900759834  0.5113760040144640
  0.5904056750036171  0.4561676769452018  0.3277240999441928
  0.4079978325629626  0.3929431149535620  0.5841466703757483
  0.5356003209954158  0.5151980261515068  0.3843836461555791
  0.4628490659745242  0.3341161893216026  0.6412908387740083
  0.4653879617621180  0.5853657915628465  0.3847707115023982
  0.5365425769329280  0.5858689393781704  0.4541759287333091
  0.5922458623340647  0.6433484385894355  0.5114478930595546
  0.4075225630581987  0.6423825997635173  0.3291309798896218
 
  0.00000000E+00  0.00000000E+00  0.00000000E+00
  0.00000000E+00  0.00000000E+00  0.00000000E+00
  0.00000000E+00  0.00000000E+00  0.00000000E+00
  0.00000000E+00  0.00000000E+00  0.00000000E+00
  0.00000000E+00  0.00000000E+00  0.00000000E+00
  0.00000000E+00  0.00000000E+00  0.00000000E+00
  0.00000000E+00  0.00000000E+00  0.00000000E+00
  0.00000000E+00  0.00000000E+00  0.00000000E+00
  0.00000000E+00  0.00000000E+00  0.00000000E+00
  0.00000000E+00  0.00000000E+00  0.00000000E+00
  0.00000000E+00  0.00000000E+00  0.00000000E+00
  0.00000000E+00  0.00000000E+00  0.00000000E+00
  0.00000000E+00  0.00000000E+00  0.00000000E+00
  0.00000000E+00  0.00000000E+00  0.00000000E+00
  0.00000000E+00  0.00000000E+00  0.00000000E+00
  0.00000000E+00  0.00000000E+00  0.00000000E+00
  0.00000000E+00  0.00000000E+00  0.00000000E+00
  0.00000000E+00  0.00000000E+00  0.00000000E+00
  0.00000000E+00  0.00000000E+00  0.00000000E+00
  0.00000000E+00  0.00000000E+00  0.00000000E+00
  0.00000000E+00  0.00000000E+00  0.00000000E+00
  0.00000000E+00  0.00000000E+00  0.00000000E+00
  0.00000000E+00  0.00000000E+00  0.00000000E+00
  0.00000000E+00  0.00000000E+00  0.00000000E+00
  0.00000000E+00  0.00000000E+00  0.00000000E+00
  0.00000000E+00  0.00000000E+00  0.00000000E+00
  0.00000000E+00  0.00000000E+00  0.00000000E+00
  0.00000000E+00  0.00000000E+00  0.00000000E+00
  0.00000000E+00  0.00000000E+00  0.00000000E+00
  0.00000000E+00  0.00000000E+00  0.00000000E+00
  0.00000000E+00  0.00000000E+00  0.00000000E+00
  0.00000000E+00  0.00000000E+00  0.00000000E+00
