H    C                                  
   1.00000000000000     
    15.0000000000000000    0.0000000000000010    0.0000000000000010
     0.0000000000000000   15.0000000000000000    0.0000000000000020
     0.0000000000000000    0.0000000000000000   15.0000000000000000
   H    C 
    18    14
Direct
  0.3290115534261877  0.2933989205543013  0.4117207675450418
  0.2434571377438852  0.3761322129473482  0.4095537002631353
  0.2408289267415130  0.2924159530529200  0.4935233305620048
  0.1996853727481036  0.4874031184611689  0.6347793755817638
  0.2853057373235900  0.6213999832911461  0.5752850112638782
  0.2902993963143470  0.5521408785388207  0.6866244502186304
  0.5476335285929037  0.4131017615752447  0.2861841422330602
  0.6331410447996929  0.4130059100600075  0.3689735276641095
  0.6349833442433189  0.4927031825366231  0.2815495879388215
  0.4891221950183197  0.2765114315007174  0.6022118692572421
  0.4202395588611481  0.3106418739447525  0.6934712347384955
  0.5207641280150166  0.3688687962233758  0.6697693927719625
  0.6347496915187509  0.6879615902002355  0.4708436288180647
  0.6365094407137692  0.6040648793667914  0.5544923691432343
  0.5495668637824409  0.6846598620594059  0.5540583616951019
  0.3636807189723389  0.6028948333844844  0.2851936695234541
  0.4480129907600856  0.6862141628731245  0.2855340804151028
  0.3648747440680636  0.6841505063444691  0.3714256726063033
  0.2854549851589694  0.3347399433917477  0.4536010952878642
  0.4630200529384860  0.5187674145722603  0.4575955759543364
  0.2696574944500038  0.5133623175694636  0.6291053608363365
  0.3276113532988565  0.4500933352786770  0.5890254185418092
  0.3381704236738355  0.3941895905660743  0.5110230014660831
  0.4167033545622822  0.4526456400094830  0.5042784167804379
  0.5905723142912782  0.4560675125638811  0.3274380313560900
  0.4115495907196888  0.3966962951883267  0.5829448522649542
  0.5375718612040733  0.5188308398697145  0.3818940311870208
  0.4634279578251445  0.3345370646354597  0.6393106574712908
  0.4646246174965222  0.5839377757166474  0.3834233047088537
  0.5372034776043867  0.5842795296569265  0.4546254656121496
  0.5922946286555754  0.6434197891846876  0.5109747800233490
  0.4076476585574162  0.6425709449778253  0.3286525236887025
 
  0.00000000E+00  0.00000000E+00  0.00000000E+00
  0.00000000E+00  0.00000000E+00  0.00000000E+00
  0.00000000E+00  0.00000000E+00  0.00000000E+00
  0.00000000E+00  0.00000000E+00  0.00000000E+00
  0.00000000E+00  0.00000000E+00  0.00000000E+00
  0.00000000E+00  0.00000000E+00  0.00000000E+00
  0.00000000E+00  0.00000000E+00  0.00000000E+00
  0.00000000E+00  0.00000000E+00  0.00000000E+00
  0.00000000E+00  0.00000000E+00  0.00000000E+00
  0.00000000E+00  0.00000000E+00  0.00000000E+00
  0.00000000E+00  0.00000000E+00  0.00000000E+00
  0.00000000E+00  0.00000000E+00  0.00000000E+00
  0.00000000E+00  0.00000000E+00  0.00000000E+00
  0.00000000E+00  0.00000000E+00  0.00000000E+00
  0.00000000E+00  0.00000000E+00  0.00000000E+00
  0.00000000E+00  0.00000000E+00  0.00000000E+00
  0.00000000E+00  0.00000000E+00  0.00000000E+00
  0.00000000E+00  0.00000000E+00  0.00000000E+00
  0.00000000E+00  0.00000000E+00  0.00000000E+00
  0.00000000E+00  0.00000000E+00  0.00000000E+00
  0.00000000E+00  0.00000000E+00  0.00000000E+00
  0.00000000E+00  0.00000000E+00  0.00000000E+00
  0.00000000E+00  0.00000000E+00  0.00000000E+00
  0.00000000E+00  0.00000000E+00  0.00000000E+00
  0.00000000E+00  0.00000000E+00  0.00000000E+00
  0.00000000E+00  0.00000000E+00  0.00000000E+00
  0.00000000E+00  0.00000000E+00  0.00000000E+00
  0.00000000E+00  0.00000000E+00  0.00000000E+00
  0.00000000E+00  0.00000000E+00  0.00000000E+00
  0.00000000E+00  0.00000000E+00  0.00000000E+00
  0.00000000E+00  0.00000000E+00  0.00000000E+00
  0.00000000E+00  0.00000000E+00  0.00000000E+00
