H    C                                  
   1.00000000000000     
    15.0000000000000000    0.0000000000000010    0.0000000000000010
     0.0000000000000000   15.0000000000000000    0.0000000000000020
     0.0000000000000000    0.0000000000000000   15.0000000000000000
   H    C 
    18    14
Direct
  0.3355259302815424  0.3064815349313248  0.4261055991175457
  0.2434433783100374  0.3796228082064570  0.4133724340891562
  0.2420705151389647  0.2969093712761058  0.4978807215441081
  0.2157206024316518  0.4223920883369029  0.6196710910856552
  0.3352958020290308  0.5873338742565445  0.5907852409097439
  0.2447761001633693  0.5720746014714886  0.6738658762356967
  0.5476095568557787  0.4130414304183597  0.2858117646331561
  0.6331340246921063  0.4130742307874699  0.3680326857548379
  0.6356088397642283  0.4925137917950109  0.2800066725766376
  0.4891054611243908  0.2694093089934286  0.6087367301531794
  0.4190218889299904  0.3178620878299586  0.6907452856655514
  0.5234789290133645  0.3681566165567093  0.6644516383468759
  0.6339398906125280  0.6884934363206529  0.4726322093809377
  0.6356862990988663  0.6033274835638914  0.5550551499868642
  0.5487536673638860  0.6839214881396016  0.5552224199326400
  0.3621720403414173  0.6022724376262525  0.2870032402913292
  0.4455712193207880  0.6867248706967775  0.2869144211947438
  0.3632188887209064  0.6841891878405174  0.3725520522244658
  0.2853460927302799  0.3452426350649213  0.4630931278303503
  0.4670058690094929  0.5141638637470753  0.4534336013166212
  0.2836852342563680  0.5442254663361150  0.6190141513320241
  0.2708730167196599  0.4605631319516388  0.5901646253695156
  0.3304255285105653  0.4101649339097828  0.5276777682441428
  0.4214242498688843  0.4499552199141704  0.5053068041001230
  0.5911968876322936  0.4563723775643114  0.3260166401286370
  0.4213212315935369  0.3875219783442892  0.5667328679506742
  0.5382779670112326  0.5184085708913477  0.3811260772750218
  0.4653873280606661  0.3334495482407070  0.6360161450801435
  0.4645060105605396  0.5844511150375964  0.3843448357339189
  0.5377921687184430  0.5851416218335809  0.4529087713960512
  0.5915373050873030  0.6429968630609399  0.5117650440046562
  0.4061173363506566  0.6423274407994720  0.3301196834752230
 
  0.00000000E+00  0.00000000E+00  0.00000000E+00
  0.00000000E+00  0.00000000E+00  0.00000000E+00
  0.00000000E+00  0.00000000E+00  0.00000000E+00
  0.00000000E+00  0.00000000E+00  0.00000000E+00
  0.00000000E+00  0.00000000E+00  0.00000000E+00
  0.00000000E+00  0.00000000E+00  0.00000000E+00
  0.00000000E+00  0.00000000E+00  0.00000000E+00
  0.00000000E+00  0.00000000E+00  0.00000000E+00
  0.00000000E+00  0.00000000E+00  0.00000000E+00
  0.00000000E+00  0.00000000E+00  0.00000000E+00
  0.00000000E+00  0.00000000E+00  0.00000000E+00
  0.00000000E+00  0.00000000E+00  0.00000000E+00
  0.00000000E+00  0.00000000E+00  0.00000000E+00
  0.00000000E+00  0.00000000E+00  0.00000000E+00
  0.00000000E+00  0.00000000E+00  0.00000000E+00
  0.00000000E+00  0.00000000E+00  0.00000000E+00
  0.00000000E+00  0.00000000E+00  0.00000000E+00
  0.00000000E+00  0.00000000E+00  0.00000000E+00
  0.00000000E+00  0.00000000E+00  0.00000000E+00
  0.00000000E+00  0.00000000E+00  0.00000000E+00
  0.00000000E+00  0.00000000E+00  0.00000000E+00
  0.00000000E+00  0.00000000E+00  0.00000000E+00
  0.00000000E+00  0.00000000E+00  0.00000000E+00
  0.00000000E+00  0.00000000E+00  0.00000000E+00
  0.00000000E+00  0.00000000E+00  0.00000000E+00
  0.00000000E+00  0.00000000E+00  0.00000000E+00
  0.00000000E+00  0.00000000E+00  0.00000000E+00
  0.00000000E+00  0.00000000E+00  0.00000000E+00
  0.00000000E+00  0.00000000E+00  0.00000000E+00
  0.00000000E+00  0.00000000E+00  0.00000000E+00
  0.00000000E+00  0.00000000E+00  0.00000000E+00
  0.00000000E+00  0.00000000E+00  0.00000000E+00
