H    C                                  
   1.00000000000000     
    15.0000000000000000    0.0000000000000010    0.0000000000000010
     0.0000000000000000   15.0000000000000000    0.0000000000000020
     0.0000000000000000    0.0000000000000000   15.0000000000000000
   H    C 
    18    14
Direct
  0.3228754906145881  0.2940254570829540  0.4084032521059577
  0.2408975722197101  0.3796317898920541  0.4062201748792555
  0.2372052402493928  0.2963064026459780  0.4904488589529420
  0.2202973063697018  0.4896860054517126  0.6552485928172518
  0.2475461627458244  0.5769768099218174  0.5799034858354419
  0.3102568358862041  0.5630408566132719  0.6794076638641038
  0.5510047431204227  0.4126145661249118  0.2853477609215384
  0.6345827867930913  0.4118766397837075  0.3694032336852702
  0.6375169061868593  0.4937051618569368  0.2836219110976982
  0.4953184082454781  0.2857015581823940  0.6010614622936136
  0.4189367588705127  0.3028930569761574  0.6900622500988901
  0.5114803526130156  0.3757958778307726  0.6763458886849317
  0.6385027842097382  0.6868195740900420  0.4711139442801003
  0.6368417488749977  0.6024874138746389  0.5545456610400158
  0.5530102121435875  0.6863120548301976  0.5533634284557789
  0.3681021047208302  0.6030105336184272  0.2818960031488887
  0.4525988143236259  0.6861757134236087  0.2819151951097076
  0.3684333272852980  0.6872001770724995  0.3654271004371678
  0.2824281479490341  0.3384522915063167  0.4506993852471133
  0.4669244300804428  0.5166924564786269  0.4541849520733532
  0.2762283965391832  0.5268230093438208  0.6253456080751767
  0.3373516072818045  0.4666346191823411  0.5767422365178653
  0.3389984572666210  0.3946964655893624  0.5083836902426392
  0.4106746491234105  0.4636346710509326  0.5090481119766607
  0.5927246995375794  0.4557172834182567  0.3278461992013576
  0.4060402166945248  0.3950465985007665  0.5816491461853736
  0.5374796842712676  0.5152848802686296  0.3834886032627019
  0.4604612923455365  0.3372760749099419  0.6401258845104750
  0.4679736297027708  0.5863179523603254  0.3826067259299776
  0.5382533691703995  0.5864600939092388  0.4528832726745803
  0.5943512809135634  0.6432023458754199  0.5105232162511124
  0.4116368181487709  0.6432598171868996  0.3253401596521405
 
  0.00000000E+00  0.00000000E+00  0.00000000E+00
  0.00000000E+00  0.00000000E+00  0.00000000E+00
  0.00000000E+00  0.00000000E+00  0.00000000E+00
  0.00000000E+00  0.00000000E+00  0.00000000E+00
  0.00000000E+00  0.00000000E+00  0.00000000E+00
  0.00000000E+00  0.00000000E+00  0.00000000E+00
  0.00000000E+00  0.00000000E+00  0.00000000E+00
  0.00000000E+00  0.00000000E+00  0.00000000E+00
  0.00000000E+00  0.00000000E+00  0.00000000E+00
  0.00000000E+00  0.00000000E+00  0.00000000E+00
  0.00000000E+00  0.00000000E+00  0.00000000E+00
  0.00000000E+00  0.00000000E+00  0.00000000E+00
  0.00000000E+00  0.00000000E+00  0.00000000E+00
  0.00000000E+00  0.00000000E+00  0.00000000E+00
  0.00000000E+00  0.00000000E+00  0.00000000E+00
  0.00000000E+00  0.00000000E+00  0.00000000E+00
  0.00000000E+00  0.00000000E+00  0.00000000E+00
  0.00000000E+00  0.00000000E+00  0.00000000E+00
  0.00000000E+00  0.00000000E+00  0.00000000E+00
  0.00000000E+00  0.00000000E+00  0.00000000E+00
  0.00000000E+00  0.00000000E+00  0.00000000E+00
  0.00000000E+00  0.00000000E+00  0.00000000E+00
  0.00000000E+00  0.00000000E+00  0.00000000E+00
  0.00000000E+00  0.00000000E+00  0.00000000E+00
  0.00000000E+00  0.00000000E+00  0.00000000E+00
  0.00000000E+00  0.00000000E+00  0.00000000E+00
  0.00000000E+00  0.00000000E+00  0.00000000E+00
  0.00000000E+00  0.00000000E+00  0.00000000E+00
  0.00000000E+00  0.00000000E+00  0.00000000E+00
  0.00000000E+00  0.00000000E+00  0.00000000E+00
  0.00000000E+00  0.00000000E+00  0.00000000E+00
  0.00000000E+00  0.00000000E+00  0.00000000E+00
