H    C                                  
   1.00000000000000     
    15.0000000000000000    0.0000000000000010    0.0000000000000010
     0.0000000000000000   15.0000000000000000    0.0000000000000020
     0.0000000000000000    0.0000000000000000   15.0000000000000000
   H    C 
    18    14
Direct
  0.3341272374970639  0.3019767598021736  0.4194683070244652
  0.2444804925057271  0.3791375066525771  0.4114038639276881
  0.2416989526160996  0.2943632406907840  0.4939406001069757
  0.2085195705363866  0.4311220480476528  0.6307299598008423
  0.3261866437457127  0.6314621060020147  0.5840389685524391
  0.2675843040843992  0.5837301850228132  0.6718357366290707
  0.5484556030828286  0.4131060373029317  0.2857817658101727
  0.6335682425300713  0.4127591868641675  0.3685131419669921
  0.6365296309920784  0.4924507245495167  0.2807604345670328
  0.4937844347115465  0.2702999944697491  0.6087603934868497
  0.4173743333070049  0.3154419469428680  0.6871233855805516
  0.5208642014108515  0.3703873367253377  0.6669607593288914
  0.6345501950776713  0.6878730957633588  0.4722327288410618
  0.6356300125146159  0.6031446942790285  0.5550430992778728
  0.5487011055661194  0.6840701321785269  0.5545731509055938
  0.3638914406987012  0.6025430051471558  0.2854954963940207
  0.4476011730564887  0.6865695724324006  0.2860432072141119
  0.3646648837278025  0.6844126581842124  0.3714812062119923
  0.2860126651649785  0.3411713526335077  0.4587325475527578
  0.4663451718134924  0.5149476887867614  0.4532662656784209
  0.2722984423778474  0.5261321955742805  0.6319045667580904
  0.2720795602262833  0.4476005091018374  0.5942258962905171
  0.3324177422982866  0.4027623232927264  0.5250598860792870
  0.4211060291022540  0.4498190412713299  0.5045227344091688
  0.5918238588949064  0.4562145945390937  0.3264558279372243
  0.4232910153503806  0.3852995829460641  0.5639077810709613
  0.5386712986759623  0.5183137923970513  0.3812807307140618
  0.4662710106284607  0.3330647719693285  0.6351914183949374
  0.4652179530581415  0.5846284560432733  0.3837459583796717
  0.5378764706859505  0.5851671812790202  0.4528562465695745
  0.5917418251077834  0.6429840076132862  0.5116453603424280
  0.4074621656277878  0.6425829913555509  0.3290127465377745
 
  0.00000000E+00  0.00000000E+00  0.00000000E+00
  0.00000000E+00  0.00000000E+00  0.00000000E+00
  0.00000000E+00  0.00000000E+00  0.00000000E+00
  0.00000000E+00  0.00000000E+00  0.00000000E+00
  0.00000000E+00  0.00000000E+00  0.00000000E+00
  0.00000000E+00  0.00000000E+00  0.00000000E+00
  0.00000000E+00  0.00000000E+00  0.00000000E+00
  0.00000000E+00  0.00000000E+00  0.00000000E+00
  0.00000000E+00  0.00000000E+00  0.00000000E+00
  0.00000000E+00  0.00000000E+00  0.00000000E+00
  0.00000000E+00  0.00000000E+00  0.00000000E+00
  0.00000000E+00  0.00000000E+00  0.00000000E+00
  0.00000000E+00  0.00000000E+00  0.00000000E+00
  0.00000000E+00  0.00000000E+00  0.00000000E+00
  0.00000000E+00  0.00000000E+00  0.00000000E+00
  0.00000000E+00  0.00000000E+00  0.00000000E+00
  0.00000000E+00  0.00000000E+00  0.00000000E+00
  0.00000000E+00  0.00000000E+00  0.00000000E+00
  0.00000000E+00  0.00000000E+00  0.00000000E+00
  0.00000000E+00  0.00000000E+00  0.00000000E+00
  0.00000000E+00  0.00000000E+00  0.00000000E+00
  0.00000000E+00  0.00000000E+00  0.00000000E+00
  0.00000000E+00  0.00000000E+00  0.00000000E+00
  0.00000000E+00  0.00000000E+00  0.00000000E+00
  0.00000000E+00  0.00000000E+00  0.00000000E+00
  0.00000000E+00  0.00000000E+00  0.00000000E+00
  0.00000000E+00  0.00000000E+00  0.00000000E+00
  0.00000000E+00  0.00000000E+00  0.00000000E+00
  0.00000000E+00  0.00000000E+00  0.00000000E+00
  0.00000000E+00  0.00000000E+00  0.00000000E+00
  0.00000000E+00  0.00000000E+00  0.00000000E+00
  0.00000000E+00  0.00000000E+00  0.00000000E+00
