H    C                                  
   1.00000000000000     
    15.0000000000000000    0.0000000000000010    0.0000000000000010
     0.0000000000000000   15.0000000000000000    0.0000000000000020
     0.0000000000000000    0.0000000000000000   15.0000000000000000
   H    C 
    18    14
Direct
  0.3288579365515241  0.2922266408856884  0.4114867629448851
  0.2421594450403622  0.3737893742671634  0.4085087232181327
  0.2397719561657592  0.2893172838854829  0.4920372843531839
  0.2055107024710613  0.5007830078242741  0.6225830491600983
  0.2918003256300132  0.6063393713948317  0.5846098328312263
  0.2858219306602305  0.5517057965826184  0.6882885209919383
  0.5473676593183591  0.4125899827547901  0.2879988409853631
  0.6325518947486948  0.4121198884450409  0.3708386318052534
  0.6348778450593670  0.4920532741406971  0.2836526479161015
  0.4902729119997080  0.2738927770681109  0.6025343113801539
  0.4188702700109577  0.3094842252745078  0.6913979816717370
  0.5196884815145346  0.3679965347079120  0.6684325074145477
  0.6346344171613669  0.6871576278735408  0.4717136607836578
  0.6363411816257828  0.6039617337544351  0.5559423254953612
  0.5499248122337818  0.6852022273963794  0.5552238797683461
  0.3642294075848289  0.6030256599127624  0.2863372472470619
  0.4481071210468033  0.6868824137049103  0.2866128912696844
  0.3651026987644987  0.6845004640611104  0.3724618473955106
  0.2840622018943231  0.3329448317643238  0.4530057362574356
  0.4631185831982279  0.5167100899410860  0.4567570880708190
  0.2750382474798203  0.5314648682078599  0.6189401436304424
  0.3339488035884619  0.4580968337609629  0.5830789266153221
  0.3370214137062419  0.3916628625661548  0.5108442346825908
  0.4102071582471029  0.4567126481917512  0.5077902205682916
  0.5901809518689928  0.4556088021380202  0.3294258861206786
  0.4095091014333405  0.3926534780180527  0.5812346782563247
  0.5358132584229880  0.5163552762421277  0.3848716804349784
  0.4630508777197495  0.3325406304556131  0.6378038442954463
  0.4651571204408281  0.5850894299105434  0.3850331411980830
  0.5358874796964893  0.5846411121871458  0.4562011153593226
  0.5919701702338801  0.6430488376423684  0.5122610383198917
  0.4080727336561560  0.6429285078513288  0.3297865813292265
 
  0.00000000E+00  0.00000000E+00  0.00000000E+00
  0.00000000E+00  0.00000000E+00  0.00000000E+00
  0.00000000E+00  0.00000000E+00  0.00000000E+00
  0.00000000E+00  0.00000000E+00  0.00000000E+00
  0.00000000E+00  0.00000000E+00  0.00000000E+00
  0.00000000E+00  0.00000000E+00  0.00000000E+00
  0.00000000E+00  0.00000000E+00  0.00000000E+00
  0.00000000E+00  0.00000000E+00  0.00000000E+00
  0.00000000E+00  0.00000000E+00  0.00000000E+00
  0.00000000E+00  0.00000000E+00  0.00000000E+00
  0.00000000E+00  0.00000000E+00  0.00000000E+00
  0.00000000E+00  0.00000000E+00  0.00000000E+00
  0.00000000E+00  0.00000000E+00  0.00000000E+00
  0.00000000E+00  0.00000000E+00  0.00000000E+00
  0.00000000E+00  0.00000000E+00  0.00000000E+00
  0.00000000E+00  0.00000000E+00  0.00000000E+00
  0.00000000E+00  0.00000000E+00  0.00000000E+00
  0.00000000E+00  0.00000000E+00  0.00000000E+00
  0.00000000E+00  0.00000000E+00  0.00000000E+00
  0.00000000E+00  0.00000000E+00  0.00000000E+00
  0.00000000E+00  0.00000000E+00  0.00000000E+00
  0.00000000E+00  0.00000000E+00  0.00000000E+00
  0.00000000E+00  0.00000000E+00  0.00000000E+00
  0.00000000E+00  0.00000000E+00  0.00000000E+00
  0.00000000E+00  0.00000000E+00  0.00000000E+00
  0.00000000E+00  0.00000000E+00  0.00000000E+00
  0.00000000E+00  0.00000000E+00  0.00000000E+00
  0.00000000E+00  0.00000000E+00  0.00000000E+00
  0.00000000E+00  0.00000000E+00  0.00000000E+00
  0.00000000E+00  0.00000000E+00  0.00000000E+00
  0.00000000E+00  0.00000000E+00  0.00000000E+00
  0.00000000E+00  0.00000000E+00  0.00000000E+00
