H    C                                  
   1.00000000000000     
    15.0000000000000000    0.0000000000000010    0.0000000000000010
     0.0000000000000000   15.0000000000000000    0.0000000000000020
     0.0000000000000000    0.0000000000000000   15.0000000000000000
   H    C 
    18    14
Direct
  0.3214757404618944  0.2946532898890886  0.4070587064764281
  0.2402167664762998  0.3809393135684890  0.4048258448898854
  0.2357438832143607  0.2976185649044866  0.4890151432535695
  0.2271204396167802  0.4905177087586108  0.6648494313160874
  0.2423830853674935  0.5742109270295240  0.5823001403270309
  0.3162502997858389  0.5681036413610744  0.6747534084450960
  0.5522783000452378  0.4124789545334094  0.2853341508935212
  0.6348595703094112  0.4113777459305741  0.3702987401503763
  0.6390926601793290  0.4931643309622817  0.2846158586690147
  0.4990052249269781  0.2906787521691113  0.6003332100533240
  0.4171665559341703  0.3003713072735498  0.6856863161135988
  0.5062726066880820  0.3785115887594877  0.6797278061398732
  0.6402198217145874  0.6855937355221773  0.4705816705089416
  0.6370284427988038  0.6018918122705571  0.5545087545937991
  0.5544718765816362  0.6869453268912910  0.5524938887269210
  0.3704396375404205  0.6033495261019102  0.2797551782817239
  0.4555266963844401  0.6858334379573275  0.2799477196363161
  0.3704435084752676  0.6883157199979519  0.3624500998198303
  0.2813779174457174  0.3394411099164721  0.4493553717361840
  0.4668025450550763  0.5173544703860014  0.4533164207441664
  0.2778774498126041  0.5277426959107950  0.6268433174022079
  0.3365189604366405  0.4674260354385377  0.5756710463872953
  0.3379877439280412  0.3954707571826168  0.5071609577485896
  0.4098936815777487  0.4646323856279057  0.5078640828761233
  0.5936427719465056  0.4553914608092800  0.3283219859932782
  0.4053029608975412  0.3958643292099857  0.5802806933525649
  0.5379812153867010  0.5152754202597164  0.3833891557016485
  0.4594467565008116  0.3387491909818904  0.6393852595820783
  0.4691064897972322  0.5867259521465185  0.3816541572498908
  0.5386436820347003  0.5865502316578750  0.4524673151914345
  0.5952802104609639  0.6429272312261676  0.5101095924761946
  0.4137569975834200  0.6436815274435931  0.3233023550919162
 
  0.00000000E+00  0.00000000E+00  0.00000000E+00
  0.00000000E+00  0.00000000E+00  0.00000000E+00
  0.00000000E+00  0.00000000E+00  0.00000000E+00
  0.00000000E+00  0.00000000E+00  0.00000000E+00
  0.00000000E+00  0.00000000E+00  0.00000000E+00
  0.00000000E+00  0.00000000E+00  0.00000000E+00
  0.00000000E+00  0.00000000E+00  0.00000000E+00
  0.00000000E+00  0.00000000E+00  0.00000000E+00
  0.00000000E+00  0.00000000E+00  0.00000000E+00
  0.00000000E+00  0.00000000E+00  0.00000000E+00
  0.00000000E+00  0.00000000E+00  0.00000000E+00
  0.00000000E+00  0.00000000E+00  0.00000000E+00
  0.00000000E+00  0.00000000E+00  0.00000000E+00
  0.00000000E+00  0.00000000E+00  0.00000000E+00
  0.00000000E+00  0.00000000E+00  0.00000000E+00
  0.00000000E+00  0.00000000E+00  0.00000000E+00
  0.00000000E+00  0.00000000E+00  0.00000000E+00
  0.00000000E+00  0.00000000E+00  0.00000000E+00
  0.00000000E+00  0.00000000E+00  0.00000000E+00
  0.00000000E+00  0.00000000E+00  0.00000000E+00
  0.00000000E+00  0.00000000E+00  0.00000000E+00
  0.00000000E+00  0.00000000E+00  0.00000000E+00
  0.00000000E+00  0.00000000E+00  0.00000000E+00
  0.00000000E+00  0.00000000E+00  0.00000000E+00
  0.00000000E+00  0.00000000E+00  0.00000000E+00
  0.00000000E+00  0.00000000E+00  0.00000000E+00
  0.00000000E+00  0.00000000E+00  0.00000000E+00
  0.00000000E+00  0.00000000E+00  0.00000000E+00
  0.00000000E+00  0.00000000E+00  0.00000000E+00
  0.00000000E+00  0.00000000E+00  0.00000000E+00
  0.00000000E+00  0.00000000E+00  0.00000000E+00
  0.00000000E+00  0.00000000E+00  0.00000000E+00
