H    C                                  
   1.00000000000000     
    15.0000000000000000    0.0000000000000010    0.0000000000000010
     0.0000000000000000   15.0000000000000000    0.0000000000000020
     0.0000000000000000    0.0000000000000000   15.0000000000000000
   H    C 
    18    14
Direct
  0.3315411268779631  0.2946839132040996  0.4131358263375416
  0.2437702988866940  0.3751148162282024  0.4094528674783929
  0.2414042304357643  0.2914076095626321  0.4934786480638858
  0.1910656970371487  0.4890644853339535  0.6296018480718582
  0.3105426413760919  0.6335731221682794  0.5766093747626280
  0.2817472928846637  0.5544864947318137  0.6818832172252555
  0.5466357933615318  0.4145575867180507  0.2874742192613826
  0.6325925518782066  0.4143575264177901  0.3704656970839568
  0.6360298199896532  0.4920627951158357  0.2810420472798470
  0.4884222807097932  0.2757002264443274  0.6026837278342168
  0.4188307872979598  0.3145703398016348  0.6911176566635754
  0.5217959373846445  0.3686327652099021  0.6678460508422174
  0.6335034012234099  0.6871980704846087  0.4707986936985369
  0.6366400818071813  0.6048155220246036  0.5557531638169017
  0.5485070724756356  0.6841435015070978  0.5546501546624674
  0.3631915854813612  0.6035365544740494  0.2860204772698427
  0.4481415265086972  0.6862312624296468  0.2872124067434106
  0.3650133093639858  0.6834008951125097  0.3736681607942975
  0.2857313216779846  0.3343807094743982  0.4540879696788734
  0.4606451679767514  0.5195063682993056  0.4589883917616012
  0.2633164626263230  0.5005981704261958  0.6365166262989473
  0.3185064673094293  0.4410459916805219  0.5954655286713038
  0.3357097380943197  0.3962664696343347  0.5117148173431557
  0.4224977848466965  0.4437886301880804  0.4956217312697566
  0.5911302432370866  0.4569823322046472  0.3275093892619630
  0.4122315916245463  0.4004220475888817  0.5814157568482424
  0.5412114643718102  0.5241890758672045  0.3787437645715289
  0.4636013086520481  0.3358693514412575  0.6373298473353468
  0.4636983692007256  0.5814027056741433  0.3828508381654853
  0.5377468902505667  0.5811365050349780  0.4567643373484465
  0.5916748156680360  0.6429678258670545  0.5119950094873850
  0.4073566626326454  0.6425336155551606  0.3298248087215133
 
  0.00000000E+00  0.00000000E+00  0.00000000E+00
  0.00000000E+00  0.00000000E+00  0.00000000E+00
  0.00000000E+00  0.00000000E+00  0.00000000E+00
  0.00000000E+00  0.00000000E+00  0.00000000E+00
  0.00000000E+00  0.00000000E+00  0.00000000E+00
  0.00000000E+00  0.00000000E+00  0.00000000E+00
  0.00000000E+00  0.00000000E+00  0.00000000E+00
  0.00000000E+00  0.00000000E+00  0.00000000E+00
  0.00000000E+00  0.00000000E+00  0.00000000E+00
  0.00000000E+00  0.00000000E+00  0.00000000E+00
  0.00000000E+00  0.00000000E+00  0.00000000E+00
  0.00000000E+00  0.00000000E+00  0.00000000E+00
  0.00000000E+00  0.00000000E+00  0.00000000E+00
  0.00000000E+00  0.00000000E+00  0.00000000E+00
  0.00000000E+00  0.00000000E+00  0.00000000E+00
  0.00000000E+00  0.00000000E+00  0.00000000E+00
  0.00000000E+00  0.00000000E+00  0.00000000E+00
  0.00000000E+00  0.00000000E+00  0.00000000E+00
  0.00000000E+00  0.00000000E+00  0.00000000E+00
  0.00000000E+00  0.00000000E+00  0.00000000E+00
  0.00000000E+00  0.00000000E+00  0.00000000E+00
  0.00000000E+00  0.00000000E+00  0.00000000E+00
  0.00000000E+00  0.00000000E+00  0.00000000E+00
  0.00000000E+00  0.00000000E+00  0.00000000E+00
  0.00000000E+00  0.00000000E+00  0.00000000E+00
  0.00000000E+00  0.00000000E+00  0.00000000E+00
  0.00000000E+00  0.00000000E+00  0.00000000E+00
  0.00000000E+00  0.00000000E+00  0.00000000E+00
  0.00000000E+00  0.00000000E+00  0.00000000E+00
  0.00000000E+00  0.00000000E+00  0.00000000E+00
  0.00000000E+00  0.00000000E+00  0.00000000E+00
  0.00000000E+00  0.00000000E+00  0.00000000E+00
