H    C                                  
   1.00000000000000     
    15.0000000000000000    0.0000000000000010    0.0000000000000010
     0.0000000000000000   15.0000000000000000    0.0000000000000020
     0.0000000000000000    0.0000000000000000   15.0000000000000000
   H    C 
    18    14
Direct
  0.3388608721865562  0.3045509849134918  0.4289019805083235
  0.2449022134144847  0.3760120475764835  0.4157839608035159
  0.2451756625444445  0.2937300284988347  0.5008752950432194
  0.2028986433070730  0.4272433393995063  0.5990948564661117
  0.3444279045934822  0.5760442873244186  0.6096898513682968
  0.2328508641754652  0.5729638666546827  0.6641929449676813
  0.5458137992003115  0.4129357071896966  0.2862968903969926
  0.6333315654302093  0.4136705273110746  0.3664444184297952
  0.6327677199702771  0.4933782953745814  0.2785569159635963
  0.4778160704219876  0.2629195442078467  0.6131824608445769
  0.4250255315786232  0.3259280536880569  0.6979871545603887
  0.5313595469557182  0.3595823585349987  0.6562906579285105
  0.6304071882178598  0.6902658894083461  0.4740156275089168
  0.6355852492946683  0.6042622010335273  0.5554727472156450
  0.5460752257653388  0.6819381729784899  0.5570838034287914
  0.3582574621430517  0.6012653107746234  0.2915179570441623
  0.4400042846381129  0.6873612288641455  0.2909358684158004
  0.3602820314455172  0.6811392417320135  0.3788453725130808
  0.2875451837591305  0.3422215397817670  0.4652585888243911
  0.4669400592323147  0.5127149634910269  0.4549350241954137
  0.2819299615390108  0.5403862901758951  0.6214994931876838
  0.2670199654798590  0.4599302467869997  0.5856243441756200
  0.3311058808583797  0.4079480282957584  0.5295267828032394
  0.4218943414544968  0.4484972280771099  0.5076878946950929
  0.5899267934531226  0.4565966952419820  0.3255452840491417
  0.4216536028424326  0.3865561786911813  0.5694135647136369
  0.5373600477616617  0.5178231087770927  0.3818626567743074
  0.4662829475451423  0.3314247993672399  0.6374834160278126
  0.4631266896323069  0.5832430511241092  0.3862171005133938
  0.5370288725596966  0.5842370710833787  0.4539865772618108
  0.5898586690493197  0.6429062037145810  0.5128983599871438
  0.4027222281589762  0.6411771193944741  0.3342147678766484
 
  0.00000000E+00  0.00000000E+00  0.00000000E+00
  0.00000000E+00  0.00000000E+00  0.00000000E+00
  0.00000000E+00  0.00000000E+00  0.00000000E+00
  0.00000000E+00  0.00000000E+00  0.00000000E+00
  0.00000000E+00  0.00000000E+00  0.00000000E+00
  0.00000000E+00  0.00000000E+00  0.00000000E+00
  0.00000000E+00  0.00000000E+00  0.00000000E+00
  0.00000000E+00  0.00000000E+00  0.00000000E+00
  0.00000000E+00  0.00000000E+00  0.00000000E+00
  0.00000000E+00  0.00000000E+00  0.00000000E+00
  0.00000000E+00  0.00000000E+00  0.00000000E+00
  0.00000000E+00  0.00000000E+00  0.00000000E+00
  0.00000000E+00  0.00000000E+00  0.00000000E+00
  0.00000000E+00  0.00000000E+00  0.00000000E+00
  0.00000000E+00  0.00000000E+00  0.00000000E+00
  0.00000000E+00  0.00000000E+00  0.00000000E+00
  0.00000000E+00  0.00000000E+00  0.00000000E+00
  0.00000000E+00  0.00000000E+00  0.00000000E+00
  0.00000000E+00  0.00000000E+00  0.00000000E+00
  0.00000000E+00  0.00000000E+00  0.00000000E+00
  0.00000000E+00  0.00000000E+00  0.00000000E+00
  0.00000000E+00  0.00000000E+00  0.00000000E+00
  0.00000000E+00  0.00000000E+00  0.00000000E+00
  0.00000000E+00  0.00000000E+00  0.00000000E+00
  0.00000000E+00  0.00000000E+00  0.00000000E+00
  0.00000000E+00  0.00000000E+00  0.00000000E+00
  0.00000000E+00  0.00000000E+00  0.00000000E+00
  0.00000000E+00  0.00000000E+00  0.00000000E+00
  0.00000000E+00  0.00000000E+00  0.00000000E+00
  0.00000000E+00  0.00000000E+00  0.00000000E+00
  0.00000000E+00  0.00000000E+00  0.00000000E+00
  0.00000000E+00  0.00000000E+00  0.00000000E+00
