H    C                                  
   1.00000000000000     
    15.0000000000000000    0.0000000000000010    0.0000000000000010
     0.0000000000000000   15.0000000000000000    0.0000000000000020
     0.0000000000000000    0.0000000000000000   15.0000000000000000
   H    C 
    18    14
Direct
  0.3367411141756696  0.3058005477407825  0.4276682954160928
  0.2437432397777526  0.3782790956630466  0.4147915638896849
  0.2431148775480574  0.2957822869105630  0.4996077676936319
  0.2080676652601766  0.4250879259530848  0.6089560910042378
  0.3419006162141846  0.5810833875273147  0.6008620055937133
  0.2382752132928722  0.5729945401888179  0.6686739024452770
  0.5468489283150854  0.4128720643675012  0.2861109947397731
  0.6332875147965324  0.4131823356833394  0.3674030230870410
  0.6343416554214045  0.4928563704758065  0.2794947585321825
  0.4839352953660539  0.2660104258906563  0.6105841572744101
  0.4214885234814090  0.3214424393536506  0.6942340859109541
  0.5273190240286592  0.3642952571653122  0.6606961423065700
  0.6322663357420140  0.6891491108956648  0.4732501791335550
  0.6355635883357896  0.6036553185451908  0.5553558029419587
  0.5474477084900291  0.6829389715697978  0.5560832408601982
  0.3604696916128583  0.6017323097656193  0.2890356977165648
  0.4431591501912565  0.6869485383424330  0.2886935720624169
  0.3620277370142680  0.6826747071586795  0.3754468099061368
  0.2860057253860615  0.3440438043376160  0.4643011568526602
  0.4669084235325491  0.5133359773212439  0.4541624110362543
  0.2832877150507258  0.5423339333743480  0.6204170877302947
  0.2687108005476847  0.4603742211045939  0.5879414503323751
  0.3306199313675910  0.4091143531434475  0.5287221386261420
  0.4215116605610475  0.4491348854846913  0.5065112938568805
  0.5906594383225394  0.4563432789344567  0.3259275750310744
  0.4213514819675053  0.3869416561857181  0.5679482530702185
  0.5378576751866173  0.5179169230737709  0.3815930544599064
  0.4657708530088924  0.3323460371021551  0.6366985687805842
  0.4639323335915156  0.5837768411433404  0.3852004857146610
  0.5373887216426838  0.5845919832356148  0.4534950229215931
  0.5907074257739361  0.6428312049546537  0.5123376909869189
  0.4046954680523386  0.6417027199806764  0.3319436764868225
 
  0.00000000E+00  0.00000000E+00  0.00000000E+00
  0.00000000E+00  0.00000000E+00  0.00000000E+00
  0.00000000E+00  0.00000000E+00  0.00000000E+00
  0.00000000E+00  0.00000000E+00  0.00000000E+00
  0.00000000E+00  0.00000000E+00  0.00000000E+00
  0.00000000E+00  0.00000000E+00  0.00000000E+00
  0.00000000E+00  0.00000000E+00  0.00000000E+00
  0.00000000E+00  0.00000000E+00  0.00000000E+00
  0.00000000E+00  0.00000000E+00  0.00000000E+00
  0.00000000E+00  0.00000000E+00  0.00000000E+00
  0.00000000E+00  0.00000000E+00  0.00000000E+00
  0.00000000E+00  0.00000000E+00  0.00000000E+00
  0.00000000E+00  0.00000000E+00  0.00000000E+00
  0.00000000E+00  0.00000000E+00  0.00000000E+00
  0.00000000E+00  0.00000000E+00  0.00000000E+00
  0.00000000E+00  0.00000000E+00  0.00000000E+00
  0.00000000E+00  0.00000000E+00  0.00000000E+00
  0.00000000E+00  0.00000000E+00  0.00000000E+00
  0.00000000E+00  0.00000000E+00  0.00000000E+00
  0.00000000E+00  0.00000000E+00  0.00000000E+00
  0.00000000E+00  0.00000000E+00  0.00000000E+00
  0.00000000E+00  0.00000000E+00  0.00000000E+00
  0.00000000E+00  0.00000000E+00  0.00000000E+00
  0.00000000E+00  0.00000000E+00  0.00000000E+00
  0.00000000E+00  0.00000000E+00  0.00000000E+00
  0.00000000E+00  0.00000000E+00  0.00000000E+00
  0.00000000E+00  0.00000000E+00  0.00000000E+00
  0.00000000E+00  0.00000000E+00  0.00000000E+00
  0.00000000E+00  0.00000000E+00  0.00000000E+00
  0.00000000E+00  0.00000000E+00  0.00000000E+00
  0.00000000E+00  0.00000000E+00  0.00000000E+00
  0.00000000E+00  0.00000000E+00  0.00000000E+00
