H    C                                  
   1.00000000000000     
    15.0000000000000000    0.0000000000000010    0.0000000000000010
     0.0000000000000000   15.0000000000000000    0.0000000000000020
     0.0000000000000000    0.0000000000000000   15.0000000000000000
   H    C 
    18    14
Direct
  0.3351751957605569  0.2992000482150574  0.4181942321058033
  0.2462625238930325  0.3767561347602006  0.4112754199764512
  0.2425110742940035  0.2904193210114934  0.4920552588785509
  0.2033688036649634  0.4345182607224912  0.6234929765771277
  0.3264249536414836  0.6170645827126184  0.5913461659087755
  0.2566746080264516  0.5817110264585925  0.6726079495245795
  0.5481173321176284  0.4133996070792089  0.2860960546667597
  0.6336032351353934  0.4135056532564295  0.3684302262718954
  0.6351988100582150  0.4936501678219262  0.2812829731218566
  0.4921942428715993  0.2673582631827588  0.6106235695172360
  0.4194473405975910  0.3179800082867415  0.6892076206065854
  0.5243830443129377  0.3685246740409296  0.6646007289901353
  0.6332854839912605  0.6882908199289001  0.4723833877724921
  0.6357285146432011  0.6037381813752137  0.5551894101565703
  0.5482449616744265  0.6840707204471000  0.5554538023072335
  0.3625152534062507  0.6027299805472730  0.2870582104435520
  0.4460768105684703  0.6866942597493868  0.2881245179074688
  0.3634002159122371  0.6840081290516796  0.3737487476504613
  0.2871993437404181  0.3383509968744636  0.4587931811134486
  0.4653882679671545  0.5141761555947579  0.4548777857931576
  0.2854059947670807  0.5404825237199904  0.6216434419744701
  0.2703632550141744  0.4543114495529354  0.5942092805740856
  0.3311781804914330  0.4013705140521205  0.5275438638518455
  0.4205487613306917  0.4476199234860791  0.5052158668167617
  0.5910219245415351  0.4567650652381423  0.3270031850176921
  0.4235301692790287  0.3831257861221648  0.5643371449657499
  0.5373975789906240  0.5180026875660089  0.3824749981589571
  0.4676958035089330  0.3319581337622912  0.6356543870559502
  0.4638966251661764  0.5841086781299449  0.3852943625241780
  0.5368112476945676  0.5847292308481277  0.4542083847185142
  0.5910763648805947  0.6430990296507163  0.5121361553986744
  0.4061175577384522  0.6423778940720408  0.3309141627532891
 
  0.00000000E+00  0.00000000E+00  0.00000000E+00
  0.00000000E+00  0.00000000E+00  0.00000000E+00
  0.00000000E+00  0.00000000E+00  0.00000000E+00
  0.00000000E+00  0.00000000E+00  0.00000000E+00
  0.00000000E+00  0.00000000E+00  0.00000000E+00
  0.00000000E+00  0.00000000E+00  0.00000000E+00
  0.00000000E+00  0.00000000E+00  0.00000000E+00
  0.00000000E+00  0.00000000E+00  0.00000000E+00
  0.00000000E+00  0.00000000E+00  0.00000000E+00
  0.00000000E+00  0.00000000E+00  0.00000000E+00
  0.00000000E+00  0.00000000E+00  0.00000000E+00
  0.00000000E+00  0.00000000E+00  0.00000000E+00
  0.00000000E+00  0.00000000E+00  0.00000000E+00
  0.00000000E+00  0.00000000E+00  0.00000000E+00
  0.00000000E+00  0.00000000E+00  0.00000000E+00
  0.00000000E+00  0.00000000E+00  0.00000000E+00
  0.00000000E+00  0.00000000E+00  0.00000000E+00
  0.00000000E+00  0.00000000E+00  0.00000000E+00
  0.00000000E+00  0.00000000E+00  0.00000000E+00
  0.00000000E+00  0.00000000E+00  0.00000000E+00
  0.00000000E+00  0.00000000E+00  0.00000000E+00
  0.00000000E+00  0.00000000E+00  0.00000000E+00
  0.00000000E+00  0.00000000E+00  0.00000000E+00
  0.00000000E+00  0.00000000E+00  0.00000000E+00
  0.00000000E+00  0.00000000E+00  0.00000000E+00
  0.00000000E+00  0.00000000E+00  0.00000000E+00
  0.00000000E+00  0.00000000E+00  0.00000000E+00
  0.00000000E+00  0.00000000E+00  0.00000000E+00
  0.00000000E+00  0.00000000E+00  0.00000000E+00
  0.00000000E+00  0.00000000E+00  0.00000000E+00
  0.00000000E+00  0.00000000E+00  0.00000000E+00
  0.00000000E+00  0.00000000E+00  0.00000000E+00
